
%FILE DATA:	Soccer Computational Problem for MiniZinc Models	%
%AUTHOR:	Jack Wall	%
%CONTACT:  	116397063@umail.ucc.ie			%
%LAST UPDATE:	03/03/2020, 16:02:56						%
%DESCRIPTION: 	32 games played with 24 games left				%


n=8; %number of teams

%Games to play
games=[|7,1|7,2|2,6|5,6|8,2|5,1|1,5|8,5|3,8|1,7|4,3|2,1|5,2|5,7|2,5|1,2|6,3|1,8|5,8|4,6|2,7|2,3|8,1|4,7|];

%Initial points
iPoints=[13,6,11,12,4,17,13,9];

%POSITION CONSTRAINTS
% [|teamID, operator, position|...]
% operators index:
%  1 for =  operator
%  2 for >  operator
%  3 for >= operator
%  4 for <  operator
%  5 for <= operator
positionConstraints=[|6,1,1|2,1,2|1,1,3|7,3,4|];